c User generated cnf file
p cnf 12 66
5 4 -2 0 
12 12 -1 0 
6 1 -8 0 
3 -4 1 0 
7 -11 1 0 
12 -3 4 0 
10 -8 1 0 
6 9 -9 0 
1 -5 2 0 
12 -12 3 0 
8 8 -7 0 
5 8 -10 0 
11 -5 2 0 
5 5 -8 0 
3 -12 2 0 
10 -12 3 0 
9 7 -12 0 
8 -1 5 0 
6 6 -7 0 
6 -7 8 0 
10 1 -8 0 
7 -4 11 0 
3 -12 6 0 
12 -12 11 0 
4 -12 6 0 
9 -11 12 0 
8 -7 8 0 
9 4 -3 0 
5 1 -9 0 
2 4 -11 0 
10 -11 5 0 
9 11 -8 0 
1 12 -11 0 
1 -9 3 0 
6 -4 1 0 
10 -8 10 0 
6 11 -9 0 
7 -3 6 0 
3 -7 11 0 
2 -1 11 0 
8 12 -1 0 
10 10 -7 0 
6 7 -10 0 
8 12 -4 0 
11 -12 8 0 
5 -2 11 0 
10 12 -9 0 
9 -5 11 0 
10 -5 12 0 
8 4 -5 0 
1 -10 4 0 
7 3 -12 0 
1 -6 2 0 
1 6 -4 0 
8 -9 9 0 
2 -2 1 0 
3 -11 3 0 
4 -12 7 0 
4 1 -1 0 
2 -1 8 0 
4 8 -1 0 
2 3 -8 0 
6 5 -10 0 
4 -7 1 0 
11 3 -6 0 
8 10 -3 0 
